NAME : prob10b
TYPE : PDTSP
DIMENSION : 21
EDGE_WEIGHT_TYPE : EUC_2D
NODE_COORD_SECTION
1 682 266
2 129 265
3 298 495
4 720 160
5 93 10
6 891 782
7 888 533
8 414 290
9 61 22
10 485 352
11 817 619
12 669 775
13 628 117
14 178 31
15 733 97
16 985 320
17 319 0
18 545 283
19 331 664
20 598 785
21 245 810
PICKUP_AND_DELIVERY_SECTION
1 0 0 0 0 0 0
2 0 0 0 0 12 0
3 0 0 0 0 13 0
4 0 0 0 0 14 0
5 0 0 0 0 15 0
6 0 0 0 0 16 0
7 0 0 0 0 17 0
8 0 0 0 0 18 0
9 0 0 0 0 19 0
10 0 0 0 0 20 0
11 0 0 0 0 21 0
12 0 0 0 0 0 2
13 0 0 0 0 0 3
14 0 0 0 0 0 4
15 0 0 0 0 0 5
16 0 0 0 0 0 6
17 0 0 0 0 0 7
18 0 0 0 0 0 8
19 0 0 0 0 0 9
20 0 0 0 0 0 10
21 0 0 0 0 0 11
DEPOT_SECTION
1 
-1
EOF
